50 8
282 674
795 71
955 151
313 87
855 180
483 485
687 349
468 353
548 277
306 128
489 336
125 947
304 201
852 81
979 240
920 679
489 680
787 844
772 684
140 802
35 746
358 495
368 27
148 972
976 100
224 831
762 516
298 868
273 514
256 538
187 689
759 737
240 655
30 642
509 340
210 870
954 147
170 859
247 548
239 794
453 181
670 915
282 668
217 234
732 586
817 620
339 594
151 959
217 655
924 801
